r = [
0,30,37,6,36,31,10,23,22,38,36,31,11,38,19,36,20,2,27,6,9,19,14,38,23,7,0
];
p = [
0,27,10,6,29,25,15,1,25,5,12,23,3,6,20,25,16,5,6,13,7,16,11,27,30,17,0
];
e = [
0,2,4,14,4,1,7,4,19,15,17,7,3,15,1,6,8,18,14,7,10,17,16,7,15,12,0
];
d = [
0,269,506,463,326,525,469,221,522,415,334,488,293,269,272,459,499,214,359,314,481,271,232,448,366,363,548
];
d_bar = [
0,293,515,468,352,548,483,222,545,420,345,509,296,274,290,482,513,219,364,326,487,285,242,472,393,378,548
];
w = [
0,0.083333333,0.444444444,2.8,0.153846154,0.043478261,0.5,4,0.826086957,3,1.545454545,0.333333333,1,3,0.055555556,0.260869565,0.571428571,3.6,2.8,0.583333333,1.666666667,1.214285714,1.6,0.291666667,0.555555556,0.8,0
];
